% seed = 0

mint = 32;
% maxt = 90;

nActs = 32;
dur = [0,5,4,1,6,4,5,3,4,1,3,2,3,1,4,3,3,4,1,3,3,1,3,5,2,1,3,2,1,4,5,0];

nSkills = 12;
sreq = [| 0,0,0,0,0,0,0,0,0,0,0,0,
	| 0,0,0,0,0,0,1,0,0,1,0,0,
	| 0,0,0,0,0,0,0,0,1,0,1,0,
	| 0,0,0,1,0,0,0,1,1,0,1,0,
	| 0,0,0,0,0,1,1,0,0,0,0,0,
	| 1,0,0,0,0,1,0,0,1,0,0,1,
	| 0,0,0,0,0,0,0,0,1,0,0,1,
	| 0,1,0,0,0,0,0,0,0,0,0,0,
	| 0,0,1,0,1,1,0,0,0,1,0,0,
	| 0,0,0,0,0,0,1,0,0,0,0,1,
	| 0,0,0,0,0,0,0,0,0,1,1,1,
	| 0,0,0,1,0,1,1,1,0,0,0,0,
	| 0,0,1,0,0,0,0,0,0,0,0,0,
	| 0,0,0,0,1,0,1,0,0,0,0,1,
	| 0,0,0,0,1,1,0,0,0,0,1,0,
	| 0,0,0,0,0,0,0,0,1,0,0,0,
	| 1,0,0,0,0,0,0,0,0,2,0,0,
	| 0,0,0,0,0,0,0,0,1,3,0,0,
	| 0,0,0,0,0,0,0,1,0,0,0,0,
	| 0,0,0,0,0,1,0,1,1,0,0,0,
	| 0,0,0,0,0,1,0,0,0,0,0,1,
	| 0,0,1,0,0,1,0,0,0,0,0,0,
	| 0,0,0,0,1,0,0,0,1,0,0,0,
	| 0,0,0,0,1,0,0,0,0,0,0,1,
	| 1,0,0,0,0,0,0,1,0,0,0,0,
	| 0,0,0,0,0,1,0,1,0,0,2,0,
	| 0,0,0,0,0,0,0,1,1,0,0,0,
	| 0,0,0,1,0,0,0,0,1,0,1,0,
	| 0,0,0,0,1,0,0,0,0,0,0,0,
	| 1,0,0,0,1,0,0,0,0,0,0,0,
	| 1,0,0,0,0,0,0,0,0,0,0,0,
	| 0,0,0,0,0,0,0,0,0,0,0,0, |];

% SumOfsreq = 72;

nResources = 14;
mastery = [| false,false,false,true,true,true,false,false,false,false,false,false,
	| false,false,false,false,false,true,false,false,false,true,true,true,
	| false,false,false,false,false,false,false,false,false,false,false,true,
	| false,false,false,false,false,false,true,true,true,false,false,false,
	| false,false,false,false,false,false,false,false,false,true,true,true,
	| false,true,true,false,false,false,false,false,false,true,true,true,
	| false,false,true,true,true,true,false,false,false,false,true,true,
	| false,false,false,false,true,true,false,false,false,false,false,false,
	| false,true,true,false,false,false,false,false,false,false,true,true,
	| true,true,true,false,false,true,false,false,false,false,false,false,
	| false,false,false,false,false,false,false,false,true,false,false,false,
	| false,false,false,true,true,true,false,true,true,false,false,true,
	| false,false,false,false,false,false,true,true,true,false,false,false,
	| false,false,false,false,false,false,false,false,true,false,false,false, |];

nPrecs = 48;
pred = [1,1,1,2,3,3,3,4,4,4,5,5,5,6,6,6,7,7,7,8,9,10,10,11,11,12,13,14,15,16,17,18,18,19,20,21,22,23,23,24,24,25,26,27,28,29,30,31];
succ = [2,3,4,29,5,6,7,20,21,14,25,11,31,18,19,16,9,12,8,20,10,22,15,26,13,18,15,22,17,24,24,21,23,20,31,31,23,25,29,28,30,26,27,30,29,32,32,32];

nUnrels = 250;
unpred = [2,2,2,2,2,2,2,2,2,2,2,2,2,2,2,2,2,2,2,2,2,2,2,2,2,2,2,2,3,3,4,4,4,4,4,4,4,4,4,4,4,4,4,4,4,4,5,5,5,5,5,5,5,5,5,5,5,5,5,5,6,6,6,6,6,6,6,6,6,6,6,7,7,7,7,7,8,8,8,8,8,8,8,8,8,8,8,8,8,8,8,8,8,8,8,8,8,9,9,9,9,9,9,9,9,9,9,10,10,10,10,10,10,10,10,10,10,11,11,11,11,11,11,11,11,11,11,11,12,12,12,12,12,12,12,12,12,12,13,13,13,13,13,13,13,13,13,13,13,13,14,14,14,14,14,14,14,14,14,14,15,15,15,15,15,15,15,15,15,15,15,16,16,16,16,16,16,16,16,16,16,16,17,17,17,17,17,17,17,17,17,17,18,18,18,18,18,19,19,19,19,19,19,19,19,19,19,20,20,20,20,20,20,20,20,20,20,21,21,21,21,21,21,21,21,21,22,22,22,23,23,23,24,24,24,24,25,25,25,26,26,26,27,27,27,28,28,29,29,30];
unsucc = [3,4,5,6,7,8,9,10,11,12,13,14,15,16,17,18,19,20,21,22,23,24,25,26,27,28,30,31,4,14,5,6,7,8,9,10,11,12,13,15,16,17,18,19,24,28,6,7,8,9,10,12,14,16,18,19,20,21,22,23,7,8,9,10,11,12,13,14,15,17,22,11,13,14,16,19,9,10,11,12,13,14,15,16,17,18,19,21,22,23,24,25,26,27,28,29,30,11,12,13,14,16,18,19,20,21,31,11,12,13,14,16,18,19,20,21,31,12,14,16,18,19,20,21,22,23,25,31,13,14,15,16,17,19,20,22,24,28,14,16,18,19,20,21,22,23,25,26,27,31,15,16,17,18,19,20,21,24,28,31,16,18,19,20,21,22,23,25,26,27,31,17,18,19,20,21,22,23,25,26,27,31,18,19,20,21,22,23,25,26,27,31,19,20,22,24,28,21,22,23,24,25,26,27,28,29,30,21,22,23,24,25,26,27,28,29,30,22,23,24,25,26,27,28,29,30,24,28,31,24,28,31,25,26,27,31,28,29,31,28,29,31,28,29,31,30,31,30,31,31];

USEFUL_RES = [{},
	{2,4,5,6,13},
	{2,4,5,6,7,9,11,12,13,14},
	{1,2,4,5,6,7,9,11,12,13,14},
	{1,2,4,7,8,10,12,13},
	{1,2,3,4,5,6,7,8,9,10,11,12,13,14},
	{2,3,4,5,6,7,9,11,12,13,14},
	{6,9,10},
	{1,2,5,6,7,8,9,10,12},
	{2,3,4,5,6,7,9,12,13},
	{2,3,5,6,7,9,12},
	{1,2,4,7,8,10,12,13},
	{6,7,9,10},
	{1,2,3,4,5,6,7,8,9,12,13},
	{1,2,5,6,7,8,9,10,12},
	{4,11,12,13,14},
	{2,5,6,10},
	{2,4,5,6,11,12,13,14},
	{4,12,13},
	{1,2,4,7,8,10,11,12,13,14},
	{1,2,3,5,6,7,8,9,10,12},
	{1,2,6,7,8,9,10,12},
	{1,4,7,8,11,12,13,14},
	{1,2,3,5,6,7,8,9,12},
	{4,10,12,13},
	{1,2,4,5,6,7,8,9,10,12,13},
	{4,11,12,13,14},
	{1,2,4,5,6,7,9,11,12,13,14},
	{1,7,8,12},
	{1,7,8,10,12},
	{10},
	{}];

POTENTIAL_ACT = [{4,5,6,9,12,14,15,20,21,22,23,24,26,28,29,30},
	{2,3,4,5,6,7,9,10,11,12,14,15,17,18,20,21,22,24,26,28},
	{6,7,10,11,14,21,24},
	{2,3,4,5,6,7,10,12,14,16,18,19,20,23,25,26,27,28},
	{2,3,4,6,7,9,10,11,14,15,17,18,21,24,26,28},
	{2,3,4,6,7,8,9,10,11,13,14,15,17,18,21,22,24,26,28},
	{3,4,5,6,7,9,10,11,12,13,14,15,20,21,22,23,24,26,28,29,30},
	{5,6,9,12,14,15,20,21,22,23,24,26,29,30},
	{3,4,6,7,8,9,10,11,13,14,15,21,22,24,26,28},
	{5,6,8,9,12,13,15,17,20,21,22,25,26,30,31},
	{3,4,6,7,16,18,20,23,27,28},
	{3,4,5,6,7,9,10,11,12,14,15,16,18,19,20,21,22,23,24,25,26,27,28,29,30},
	{2,3,4,5,6,7,10,12,14,16,18,19,20,23,25,26,27,28},
	{3,4,6,7,16,18,20,23,27,28}];
